Route #1: 54 75 133 64 127 130 93 132 107 92 78 120 73 121 79
Route #2: 70 74 50 123 27 115 34 131 38 69 94 108 9 124
Route #3: 3 102 134 40 37 17 47 119 11 14 135 33 81 91
Route #4: 20 45 110 35 58 80 41 31 97 13 10 109
Route #5: 111 105 82 106 77 43 46 55 18 1 21 103 63
Route #6: 88 62 4 23 26 22 112 137 114 24 85 118 32 16
Route #7: 29 72 117 12 90 113 96 5 6 61 19 66 48 65 44
Route #8: 95 126 52 125 25 36 129 53 49 2 99 87 98
Route #9: 71 100 67 42 59 60 15 8 57 39 51 84 30 7
Route #10: 89 104 86 101 128 116 68 83 136 28 138 122 76 56
